
100
23282

712 664
89 83
267 249
445 415
534 498
801 747
356 332
261 783
58 174
712 664
178 166
356 332
178 166
356 332
178 166
145 435
87 261
890 830
890 830
267 249
203 609
290 870
87 261
58 174
87 261
890 830
203 609
178 166
232 696
203 609
203 609
58 174
712 664
89 83
87 261
29 87
534 498
87 261
89 83
116 348
267 249
290 870
145 435
712 664
178 166
116 348
174 522
203 609
145 435
145 435
116 348
203 609
445 415
178 166
623 581
232 696
890 830
89 83
534 498
712 664
623 581
145 435
174 522
174 522
445 415
203 609
174 522
890 830
623 581
29 87
116 348
356 332
623 581
203 609
801 747
290 870
174 522
801 747
203 609
801 747
203 609
178 166
261 783
29 87
290 870
232 696
290 870
890 830
29 87
145 435
89 83
712 664
116 348
445 415
267 249
290 870
178 166
178 166
174 522
801 747
